10 6 4 15 18 14 11 17 8 12 5 9 19 2 13 16 0 1 7 3  
10 6 15 4 18 14 11 17 8 12 0 19 16 5 9 13 7 3 1 2  
10 6 15 4 11 18 14 17 8 12 5 9 19 2 13 16 0 1 7 3  
10 6 15 4 18 14 11 17 8 12 0 19 16 5 9 13 2 7 3 1  
10 6 15 4 14 18 11 17 8 19 12 0 16 5 9 13 1 7 2 3  
10 6 15 4 14 18 11 17 8 19 12 0 16 5 9 13 1 7 2 3  
10 6 15 4 11 18 14 7 8 0 12 17 1 5 9 19 2 13 16 3  
10 6 15 4 14 18 11 17 8 19 12 0 1 5 9 13 7 16 2 3  
10 6 15 4 18 14 11 7 8 0 1 17 12 5 9 19 2 13 16 3  
10 6 15 4 18 14 11 17 8 12 5 9 19 1 0 7 13 2 16 3  
10 6 15 4 14 18 11 17 8 19 12 5 9 13 2 16 0 1 7 3  
10 6 15 4 18 14 11 17 8 12 5 9 19 0 1 7 13 2 16 3  
10 6 15 4 18 14 11 7 8 5 17 12 9 19 1 0 13 2 16 3  
10 6 15 4 18 14 11 17 8 12 5 9 19 1 0 2 13 7 16 3  
10 6 15 4 18 14 11 17 8 12 0 16 9 19 5 2 7 3 13 1  
10 6 15 4 18 14 11 17 8 12 5 9 19 2 16 0 13 7 1 3  
10 6 15 4 18 14 11 17 8 12 5 9 19 1 0 2 13 7 16 3  
10 6 15 4 11 18 14 17 8 12 5 9 19 2 13 16 0 1 7 3  
10 6 15 4 11 18 14 17 8 12 0 1 5 9 13 16 7 2 3 19  
10 6 15 4 14 18 11 17 8 19 12 0 16 5 9 13 2 7 3 1  
10 6 15 4 18 14 11 17 8 12 5 9 19 2 16 0 13 7 1 3  
10 6 15 4 14 18 11 17 8 19 12 0 1 5 9 13 2 16 7 3  
10 6 15 4 18 14 11 17 8 12 0 19 16 5 9 13 2 1 7 3  
10 6 15 4 11 18 14 7 8 0 12 17 1 5 9 19 2 13 16 3  
10 6 15 4 18 14 11 17 8 12 5 9 19 1 0 7 2 13 16 3  
10 6 15 4 14 18 11 17 8 19 12 0 16 5 9 13 2 1 7 3  
10 6 15 4 18 14 11 17 8 12 0 16 9 19 5 3 13 2 1 7  
10 6 15 4 18 14 11 7 8 0 12 17 1 5 9 19 2 13 16 3  
10 6 15 4 18 14 11 17 8 12 0 19 16 5 9 13 2 7 1 3  
